c generated by ezSAT
p cnf 12 20
    1              0
   -2              0
    3   -2    4    0
   -4   -3         0
   -4    2         0
    4    3   -5    0
    5   -4         0
    5   -3         0
    5              0
    1              0
    7    6    8    0
   -8   -7         0
   -8   -6         0
   -6   -7    9    0
   -9    6         0
   -9    7         0
    8    9  -10    0
   10   -8         0
   10   -9         0
   10              0
